c description: Random 3-CNF over 22 variables and 94 clauses
c generator: CNFgen (0.9.2)
c copyright: (C) 2012-2022 Massimo Lauria <massimo.lauria@uniroma1.it>
c url: https://massimolauria.net/cnfgen
c command line: cnfgen --output CNF_4.28/22_bit_94_391.cnf randkcnf 3 22 94
c
p cnf 22 94
9 -15 22 0
2 7 -11 0
-3 9 -19 0
3 -9 -13 0
2 -5 -19 0
-3 10 -17 0
-1 5 -16 0
5 -9 13 0
-1 2 -17 0
-2 9 -13 0
-3 -13 -14 0
-6 8 -15 0
-13 16 -20 0
8 -13 15 0
2 18 20 0
14 16 18 0
1 -15 -16 0
6 7 18 0
10 16 18 0
-1 -12 16 0
1 -4 -21 0
-5 -8 17 0
9 -18 -22 0
8 -15 19 0
2 4 -9 0
-1 7 8 0
-8 -9 14 0
-9 13 20 0
2 5 -20 0
-16 -21 22 0
-4 -12 -14 0
-3 13 -14 0
10 -18 21 0
-1 20 -22 0
-9 17 -19 0
4 13 -15 0
7 -12 15 0
15 -18 -22 0
8 9 12 0
-3 -7 -9 0
-8 -10 22 0
-1 -15 -16 0
-7 -10 16 0
2 -7 -12 0
-12 21 -22 0
3 5 14 0
7 9 -19 0
5 8 20 0
-1 -7 -18 0
10 -13 -18 0
1 -6 12 0
8 13 21 0
-8 14 19 0
-4 -5 16 0
9 16 -21 0
8 16 -22 0
12 -13 -20 0
12 -18 -19 0
-9 -19 21 0
8 17 -22 0
11 15 -16 0
-6 -9 21 0
7 9 21 0
1 -8 -10 0
4 15 19 0
-4 18 -20 0
-1 -6 -18 0
5 10 22 0
1 18 -22 0
4 -11 -17 0
8 -12 13 0
-9 -11 19 0
-1 -12 -15 0
-6 -9 14 0
-3 -8 -15 0
-10 16 -21 0
-3 -15 16 0
2 -5 -22 0
6 16 17 0
-7 14 18 0
-11 14 -15 0
2 -3 -13 0
-4 9 13 0
11 21 -22 0
-4 5 -9 0
3 -6 22 0
5 19 22 0
4 -13 -22 0
1 6 21 0
-11 12 17 0
-14 -15 -20 0
-1 -19 21 0
-5 -8 -9 0
-2 -20 22 0
